experiment/data/hgs-res/Vrp-Set-Golden-n361/Vrp-Set-Golden-n361-hgs/1.hgs1.tour
Route #1: 17 16 52 53 54 55 56 92 128 129 165 201 237 273 309 345 346 310 274 238 202 203 239 275 311 347 348 312 276 240 204 168 167 166 130 131 95 94 93 57 58 22 21 20 19 18
Route #2: 24 25 26 27 28 29 30 66 65 64 63 62 98 134 170 171 172 208 244 280 316 352 351 315 279 243 207 206 242 278 314 350 349 313 277 241 205 169 133 132 96 97 61 60 59 23
Route #3: 33 34 70 69 105 141 140 139 175 176 212 248 284 320 356 355 319 283 247 211 210 246 282 318 354 353 317 281 245 209 173 174 138 137 136 135 99 100 101 102 103 104 68 67 31 32
Route #4: 36 1 2 3 4 5 41 40 39 38 37 72 108 73 109 144 143 179 180 216 252 288 324 360 359 323 287 251 215 214 250 286 322 358 357 321 285 249 213 177 178 142 106 107 71 35
Route #5: 7 43 79 80 116 115 114 113 112 148 184 220 256 292 328 327 291 255 219 183 182 218 254 290 326 325 289 253 217 181 145 146 147 111 110 74 75 76 77 78 42 6
Route #6: 9 10 46 82 118 154 190 226 262 298 334 333 297 261 225 189 188 224 260 296 332 331 295 259 223 187 186 222 258 294 330 329 293 257 221 185 149 150 151 152 153 117 81 45 44 8
Route #7: 12 48 84 85 121 157 158 159 160 196 232 268 304 340 339 303 267 231 195 194 230 266 302 338 337 301 265 229 193 192 228 264 300 336 335 299 263 227 191 155 156 120 119 83 47 11
Route #8: 15 51 87 88 89 90 91 127 163 164 200 236 272 308 344 343 307 271 235 199 198 234 270 306 342 341 305 269 233 197 161 162 126 125 124 123 122 86 50 49 13 14
Cost 10023.8
